param size := 9;

param nsubsets := 3;

set ROWSUBS[1] := 1 2 3;
set ROWSUBS[2] := 4 5 6;
set ROWSUBS[3] := 7 8 9;

set COLSUBS[1] := 1 2 3;
set COLSUBS[2] := 4 5 6;
set COLSUBS[3] := 7 8 9;

set KNOWN :=
9 1 1
2 1 3
6 1 7
3 1 9
9 2 4
5 2 5
4 2 7
7 3 1
8 3 8
9 4 3
1 4 4
8 4 6
6 4 8
6 5 1
2 5 9
1 6 2
2 6 4
3 6 6
7 6 7
8 7 2
6 7 9
6 8 3
1 8 5
9 8 6
1 9 1
7 9 3
2 9 7
8 9 9;
